
Gurobi 12.0.1 (win64, C++) logging started Thu Apr 17 22:33:45 2025

Set parameter Username
Academic license - for non-commercial use only - expires 2026-01-06
Set parameter Threads to value 8
Set parameter LazyConstraints to value 1
Set parameter PreCrush to value 1
Set parameter Seed to value 10
Set parameter Cuts to value -1
Set parameter TimeLimit to value 28800
Set parameter NumericFocus to value 0
Set parameter SolutionLimit to value 10000
Gurobi Optimizer version 12.0.1 build v12.0.1rc0 (win64 - Windows Server 2022.0 (20348.2))

CPU model: AMD EPYC 7513 32-Core Processor, instruction set [SSE2|AVX|AVX2]
Thread count: 18 physical cores, 18 logical processors, using up to 8 threads

Non-default parameters:
SolutionLimit  10000
TimeLimit  28800
PreCrush  1
Seed  10
Threads  8
LazyConstraints  1

Optimize a model with 137 rows, 256 columns and 720 nonzeros
Model fingerprint: 0xe6f92a34
Variable types: 0 continuous, 256 integer (256 binary)
Coefficient statistics:
  Matrix range     [1e+00, 1e+00]
  Objective range  [8e+00, 6e+01]
  Bounds range     [1e+00, 1e+00]
  RHS range        [1e+00, 4e+00]

User MIP start produced solution with objective 333.464 (0.00s)
Loaded user MIP start with objective 333.464

Presolve removed 5 rows and 26 columns
Presolve time: 0.01s
Presolved: 132 rows, 230 columns, 660 nonzeros
Variable types: 0 continuous, 230 integer (230 binary)

Root relaxation: objective 2.487960e+02, 63 iterations, 0.00 seconds (0.00 work units)

    Nodes    |    Current Node    |     Objective Bounds      |     Work
 Expl Unexpl |  Obj  Depth IntInf | Incumbent    BestBd   Gap | It/Node Time

     0     0  248.79604    0    -  333.46418  248.79604  25.4%     -    0s
     0     0  250.13267    0   12  333.46418  250.13267  25.0%     -    0s
     0     0  251.73966    0    -  333.46418  251.73966  24.5%     -    0s
     0     0  255.70093    0   20  333.46418  255.70093  23.3%     -    0s
     0     0  256.67946    0    -  333.46418  256.67946  23.0%     -    0s
     0     0  262.10916    0   20  333.46418  262.10916  21.4%     -    0s
     0     0  262.70458    0   18  333.46418  262.70458  21.2%     -    0s
     0     0  263.91185    0    -  333.46418  263.91185  20.9%     -    0s
     0     0  264.75097    0    -  333.46418  264.75097  20.6%     -    0s
     0     0  266.44419    0   45  333.46418  266.44419  20.1%     -    0s
     0     0  273.96099    0    -  333.46418  273.96099  17.8%     -    0s
     0     0  275.14328    0   28  333.46418  275.14328  17.5%     -    0s
H    0     0                     323.7284065  275.14328  15.0%     -    0s
H    0     2                     309.1861279  279.45111  9.62%     -    0s
     0     2  279.45111    0   29  309.18613  279.45111  9.62%     -    0s
H  148   136                     297.6508751  283.71814  4.68%  18.1    3s
   657   280     cutoff   21       297.65088  288.94378  2.93%  14.5    5s

Cutting planes:
  MIR: 1
  GUB cover: 1
  Lazy constraints: 1482

Explored 1477 nodes (20591 simplex iterations) in 5.71 seconds (1.05 work units)
Thread count was 8 (of 18 available processors)

Solution count 4: 297.651 309.186 323.728 333.464 

Optimal solution found (tolerance 1.00e-04)
Best objective 2.976508750726e+02, best bound 2.976508750726e+02, gap 0.0000%

User-callback calls 3300, time in user-callback 4.72 sec
### START EXACT APPROACH ###
ProblemVariant: 5
### START PREPROCESSING ###
## Start infeasible path procedure ## 
Deleted arcs: 10
Infeasible tail paths: 0
Infeasible 2-node combinations: 5
## Start extended infeasible path procedure ##
Deleted arcs: 10
Infeasible tail paths: 0
Infeasible 2-node combinations: 5
## Start start solution procedure ##
Start solution with 4 Vehicles and total costs 333.464 in 1.03434 s.
### END PREPROCESSING ###
Route 0 0-2-3-8-1-0 : weight util 0.844444 | volume util 0.427467 | feasible with packing heuristic | feasible with CP model
Route 1 0-11-0 : weight util 0.211111 | volume util 0.278067 | feasible with packing heuristic | feasible with CP model
Route 2 0-12-5-9-10-15-4-0 : weight util 0.944444 | volume util 0.653978 | feasible with packing heuristic | feasible with CP model
Route 3 0-13-14-7-6-0 : weight util 0.866667 | volume util 0.782178 | infeasible with packing heuristic | feasible with CP model
